42
Route #1: 1 12 28 
Route #2: 2 14 
Route #3: 3 22 
Route #4: 4 18 27 
Route #5: 5 13 
Route #6: 6 15 
Route #7: 7 21 
Route #8: 8 20 25 
Route #9: 9 23 
Route #10: 10 17 
Route #11: 11 33 
Route #12: 16 31 37 
Route #13: 19 32 36 43 
Route #14: 24 30 38 
Route #15: 26 34 
Route #16: 29 35 58 
Route #17: 39 50 62 
Route #18: 40 68 
Route #19: 41 57 70 
Route #20: 42 54 81 
Route #21: 44 64 
Route #22: 45 51 65 
Route #23: 46 55 
Route #24: 47 69 
Route #25: 48 56 
Route #26: 49 61 78 
Route #27: 52 66 84 
Route #28: 53 67 75 
Route #29: 59 72 85 
Route #30: 60 
Route #31: 63 83 88 
Route #32: 71 80 90 
Route #33: 73 87 
Route #34: 74 89 94 
Route #35: 76 92 100 
Route #36: 77 96 
Route #37: 79 91 
Route #38: 82 93 
Route #39: 86 95 
Route #40: 97 
Route #41: 98 
Route #42: 99 
Cost 67030.0
